#######################
Slurm job id: 17497813_100
Running on machine: p16
Running cmd: /nfs/shared/static-builds/gurobi1003 SOFTMEMLIMIT=125 MIPFocus=0 Presolve=1 TimeLimit=300 seed=9 /nfs/models/miplib2010/k16x240.mps.bz2
#######################
Set parameter TimeLimit to value 300
Set parameter SoftMemLimit to value 125
Set parameter LogFile to value 1003-MIPFocus0-Presolve1-TimeLimit300-k16x240-9.log
Set parameter Presolve to value 1
Set parameter Seed to value 9
Using license file /opt/gurobi/gurobi.lic

Gurobi Optimizer version 10.0.3 build v10.0.3rc0 (linux64)
Copyright (c) 2023, Gurobi Optimization, LLC

Read MPS format model from file /nfs/models/miplib2010/k16x240.mps.bz2
Reading time = 0.00 seconds
k16x240: 256 rows, 480 columns, 960 nonzeros

CPU model: Intel(R) Xeon(R) E-2388G CPU @ 3.20GHz, instruction set [SSE2|AVX|AVX2|AVX512]
Thread count: 8 physical cores, 16 logical processors, using up to 16 threads

Optimize a model with 256 rows, 480 columns and 960 nonzeros
Model fingerprint: 0x4e80885f
Variable types: 240 continuous, 240 integer (240 binary)
Coefficient statistics:
  Matrix range     [1e+00, 1e+03]
  Objective range  [1e+00, 1e+03]
  Bounds range     [1e+00, 1e+03]
  RHS range        [4e+00, 4e+02]
Found heuristic solution: objective 21896.000000
Presolve time: 0.00s
Presolved: 256 rows, 480 columns, 960 nonzeros
Variable types: 240 continuous, 240 integer (240 binary)

Root relaxation: objective 2.769838e+03, 51 iterations, 0.00 seconds (0.00 work units)

    Nodes    |    Current Node    |     Objective Bounds      |     Work
 Expl Unexpl |  Obj  Depth IntInf | Incumbent    BestBd   Gap | It/Node Time

     0     0 2769.83800    0   14 21896.0000 2769.83800  87.4%     -    0s
H    0     0                    11359.000000 2769.83800  75.6%     -    0s
H    0     0                    11195.000000 2769.83800  75.3%     -    0s
H    0     0                    11074.000000 8084.69631  27.0%     -    0s
     0     0 8084.69631    0   26 11074.0000 8084.69631  27.0%     -    0s
H    0     0                    10916.000000 8084.69631  25.9%     -    0s
     0     0 8528.16906    0   24 10916.0000 8528.16906  21.9%     -    0s
H    0     0                    10826.000000 8539.15185  21.1%     -    0s
     0     0 8539.15185    0   34 10826.0000 8539.15185  21.1%     -    0s
     0     0 8548.03675    0   29 10826.0000 8548.03675  21.0%     -    0s
H    0     0                    10779.000000 8733.37944  19.0%     -    0s
     0     0 8733.37944    0   34 10779.0000 8733.37944  19.0%     -    0s
H    0     0                    10717.000000 8733.37944  18.5%     -    0s
     0     0 8793.89382    0   28 10717.0000 8793.89382  17.9%     -    0s
     0     0 8813.48501    0   28 10717.0000 8813.48501  17.8%     -    0s
     0     0 8817.87868    0   34 10717.0000 8817.87868  17.7%     -    0s
     0     0 8889.94840    0   40 10717.0000 8889.94840  17.0%     -    0s
     0     0 8906.02679    0   30 10717.0000 8906.02679  16.9%     -    0s
     0     0 8917.32586    0   33 10717.0000 8917.32586  16.8%     -    0s
     0     0 8922.74669    0   35 10717.0000 8922.74669  16.7%     -    0s
     0     0 9027.36164    0   18 10717.0000 9027.36164  15.8%     -    0s
     0     0 9042.66301    0   39 10717.0000 9042.66301  15.6%     -    0s
     0     0 9058.41309    0   32 10717.0000 9058.41309  15.5%     -    0s
     0     0 9060.53499    0   26 10717.0000 9060.53499  15.5%     -    0s
     0     0 9114.81390    0   32 10717.0000 9114.81390  14.9%     -    0s
     0     0 9118.02615    0   33 10717.0000 9118.02615  14.9%     -    0s
     0     0 9123.14946    0   40 10717.0000 9123.14946  14.9%     -    0s
     0     0 9123.14946    0   40 10717.0000 9123.14946  14.9%     -    0s
     0     2 9123.14946    0   40 10717.0000 9123.14946  14.9%     -    0s
H  137   144                    10681.000000 9284.89019  13.1%  36.4    0s
H  151   176                    10678.000000 9284.89019  13.0%  35.1    0s
H  369   354                    10674.000000 9284.89019  13.0%  23.4    0s
 30115 11856 10389.0683   26   27 10674.0000 10043.7256  5.90%  24.8    5s
 69705 17955 10503.9660   31    8 10674.0000 10225.2841  4.20%  26.2   10s
 109913 16827 10661.1050   26   26 10674.0000 10363.6235  2.91%  26.8   15s
 153071  2134     cutoff   37      10674.0000 10557.6644  1.09%  26.2   20s

Cutting planes:
  Gomory: 3
  Lift-and-project: 14
  Cover: 73
  Implied bound: 40
  MIR: 175
  Flow cover: 326
  Flow path: 58
  Inf proof: 1
  Zero half: 11
  Network: 53
  Relax-and-lift: 2

Explored 157392 nodes (4073226 simplex iterations) in 20.25 seconds (24.51 work units)
Thread count was 16 (of 16 available processors)

Solution count 10: 10674 10678 10681 ... 11359

Optimal solution found (tolerance 1.00e-04)
Best objective 1.067400000000e+04, best bound 1.067400000000e+04, gap 0.0000%
